32 61 
34 63 
77 5 
47 58 
26 73 
99 71 
94 26 
34 13 
66 90 
54 28 
43 44 
25 62 
21 15 
83 66 
47 48 
76 31 
9 62 
46 39 
68 93 
49 46 
66 0 
17 12 
78 52 
25 45 
94 31 
73 37 
75 50 
52 49 
65 87 
15 64 
35 43 
95 44 
58 41 
35 78 
86 84 
24 52 
84 93 
64 63 
45 41 
60 92 
24 85 
81 0 
35 33 
1 53 
20 68 
17 55 
11 65 
52 21 
58 39 
51 45 
